NAME : instances/clustered-mixed-tsp/instance-61.tsp
COMMENT : No Comment
TYPE : TSP
DIMENSION: 46
EDGE_WEIGHT_TYPE : EUC_2D
NODE_COORD_SECTION
1 1009 6515 
2 5859 1133 
3 5236 1727 
4 5987 1044 
5 5042 4637 
6 5296 4431 
7 7891 1549 
8 513 6826 
9 6100 8626 
10 5400 5270 
11 458 6435 
12 5857 8286 
13 2841 6364 
14 5623 1732 
15 2186 6664 
16 5865 5179 
17 338 6626 
18 7562 1543 
19 3681 269 
20 5717 1532 
21 695 6806 
22 8174 1586 
23 521 6755 
24 5611 8483 
25 5663 5211 
26 781 7164 
27 272 6901 
28 119 6348 
29 642 7342 
30 224 7138 
31 7941 1699 
32 2591 7435 
33 798 6880 
34 5479 5146 
35 5496 7868 
36 5215 1006 
37 629 6391 
38 5304 1634 
39 2928 1134 
40 697 6440 
41 5552 5297 
42 428 6626 
43 2850 1117 
44 5049 5098 
45 5972 1832 
46 2639 6096 
EOF
